&control
   calculation = 'scf'
   restart_mode = 'from_scratch'
   prefix = 'Co_fcc-fm'
   tstress = .true.
   tprnfor = .true.
   outdir = '../temp/'
   pseudo_dir = '../PP/'
/        
&system
   ibrav = 2
   celldm(1) = 6.68963048571355
   nat = 1
   ntyp = 1
   ecutwfc = 45
   ecutrho = 360
   occupations = 'smearing'
   degauss = 0.01
   smearing = 'm-v'
   nspin = 2
   starting_magnetization(1) = 0.1
/
&electrons
   mixing_beta = 0.7 
   conv_thr = 1.0d-8
/
ATOMIC_SPECIES
Co  58.933194  Co_pbe_v1.2.uspp.F.UPF
ATOMIC_POSITIONS crystal
Co  0.0 0.0 0.0
K_POINTS automatic
   12 12 12 0 0 0 
