&control
  calculation = 'scf'
  restart_mode = 'from_scratch'
  prefix = 'Co_hcp-fm'
  tstress = .true.
  tprnfor = .true.
  outdir = '../temp/'
  pseudo_dir = '../PP/'
/
&system
  ibrav = 4
  celldm(1) = 4.724315314769456
  celldm(3) = 1.6239999999999999
  nat = 2
  ntyp = 1
  ecutwfc = 45
  ecutrho = 360
  occupations = 'smearing'
  degauss = 0.01
  smearing = 'm-v'
  nspin = 2
  starting_magnetization(1) = -0.1
/
&electrons
  mixing_beta = 0.7 
  conv_thr = 1.0d-8
/
ATOMIC_SPECIES
Co  58.933194  Co_pbe_v1.2.uspp.F.UPF
ATOMIC_POSITIONS crystal
Co  0.333333 0.666667 0.25
Co  0.666667 0.333333 0.75
K_POINTS automatic
  12 12 6 0 0 0 
