# This section defines the units that you are using. The dimensions of your
# simulation and the periodic boundary conditions.

units metal
dimension 3
boundary p p p

# Read the data file
read_data Ag_supercell_14x14x14.lmp

# Define the Embedded Atom Potential
pair_style eam
pair_coeff * * Ag_u3.eam

# Define neighbor list settings to improve computational efficiency .
neighbor 0.3 bin
neigh_modify delay 5 every 1

# Allow anisotropic box relaxation and atomic position relaxation .
fix 1 all box/relax iso 0.0 vmax 0.001

# Monitor thermodynamic properties with energy output at every step .
thermo 1
thermo_style custom step temp pe lx ly lz press

# Relaxation
# minimize 1.0e-10 1.0e-12 1000 10000
run 0

variable pot_e equal pe
print "${pot_e}" append energy_no_vacancy_no_relax.dat