&bands
    prefix = 'MgO'
    outdir = '../tmp'
    filband = 'MgO-bands.dat'
/    
