&control
    calculation = 'nscf'
    prefix='MgO'
    pseudo_dir = '../PP'
    outdir = '../tmp'
/
&system
    ibrav = 2
    celldm(1) = 8.0374557182
    nat = 2
    ntyp = 2
    ecutwfc = 50
    ecutrho = 400
    occupations='tetrahedra'
    nbnd = 20
/
&electrons
/
ATOMIC_SPECIES
    Mg  24.0350   Mg.pbe-n-kjpaw_psl.0.3.0.UPF
    O   15.9994   O.pbe-n-kjpaw_psl.0.1.UPF
ATOMIC_POSITIONS (alat)
Mg      0.000000000  0.000000000  0.000000000
O       0.500000000  0.500000000  0.500000000
K_POINTS  {automatic}
 16 16 16 0 0 0 
