&projwfc
    prefix = 'MgO'
    outdir = '../tmp'
    filpdos = 'MgO-pdos.dat'
    lwrite_overlaps = .true.
/
