 &control
    calculation = 'nscf'
    prefix = 'Co_hcp-nm'
    outdir = '../temp/'
    pseudo_dir = '../PP/'
 /        
 &system    
    ibrav = 4
    celldm(1) = 4.724315314769456
    celldm(3) = 1.6239999999999999
    nat = 2
    ntyp = 1
    ecutwfc = 45
    ecutrho = 360
    occupations = 'tetrahedra'
    nspin = 1
 /
 &electrons
 /
 ATOMIC_SPECIES
  Co  58.933194  Co_pbe_v1.2.uspp.F.UPF
 ATOMIC_POSITIONS crystal
  Co  0.333333 0.666667 0.25
  Co  0.666667 0.333333 0.75
 K_POINTS automatic
    18 18 9 0 0 0 
