&CONTROL
  calculation  = "scf",
  prefix       = "Si",
  pseudo_dir   = "./",
  outdir       = "./tmp",
  restart_mode = "from_scratch"
  verbosity    = 'high'
  tprnfor = .true.
  wf_collect=.true.
/
&SYSTEM
  ibrav     = 1,
  celldm(1) = 10.2,
  nat       = 8,
  ntyp      = 1,
  ecutwfc   = 90 
  nbnd      = 40
/
&ELECTRONS
  conv_thr    = 1.D-8,
  mixing_beta = 0.7D0	,
/
ATOMIC_SPECIES
 Si  28.086  Si.pz-vbc.UPF
ATOMIC_POSITIONS
 Si 0.00 0.00 0.00
 Si 0.50 0.50 0.00
 Si 0.50 0.00 0.50
 Si 0.00 0.50 0.50
 Si 0.25 0.25 0.25
 Si 0.75 0.75 0.25
 Si 0.75 0.25 0.75
 Si 0.25 0.75 0.75
K_POINTS {automatic}
  2 2 2   0 0 0