 &bands
    prefix  = 'MoS2'
    outdir = './out'
    filband = 'MoS2.dat'
    lsym=.true.,
 /
